(set-info :Origin "This instance was generated by: BanditFuzz-- an RL fuzzer for SMT solvers" )
(set-info :Author "Joe Scott, Fed Mora, Vijay Ganesh" )
(set-info :Contact "Joe Scott, joseph.scott@uwaterloo.ca")
(set-logic QF_BV)
(declare-const bool_0 Bool)
(declare-const bool_1 Bool)
(declare-const bool_2 Bool)
(declare-const bool_3 Bool)
(declare-const bool_4 Bool)
(declare-const bv_0 (_ BitVec 32))
(declare-const bv_1 (_ BitVec 32))
(declare-const bv_2 (_ BitVec 32))
(declare-const bv_3 (_ BitVec 32))
(declare-const bv_4 (_ BitVec 32))
(assert (or (not (bvuge bv_2 #xce05a5f5 )) (not (bvslt #xa6286699  bv_3))))
(assert (bvsge (bvxnor (bvand bv_1 #xf63f5533 ) (bvsub #xecb468fd  #x15acfc01 )) (bvudiv (bvurem #x7d4b7243  #x2fad5bc2 ) (bvshl bv_4 bv_3))))
(assert (=> (bvslt (bvor bv_2 #xb21a0bfe ) (bvurem #xcc3b8d7a  bv_3)) (bvslt (bvadd #xcfeaac8e  bv_1) (bvsub bv_4 bv_3))))
(assert (bvule (bvnand (bvudiv bv_1 bv_2) (bvlshr bv_2 bv_4)) (bvmul (bvnor #x50b33fda  #x3e9b51d8 ) (bvmul #x7b38b17c  bv_4))))
(assert (bvsle (bvmul (bvnor #xa43ec022  #x6f6745e5 ) (bvashr bv_4 bv_2)) (bvurem (bvshl bv_1 bv_3) (bvadd bv_3 #x4c34355c ))))
(check-sat)
(exit)
